(set-logic ALL)
(declare-fun var0 () String)
(assert (str.in_re var0 (re.++ (re.union (re.union (re.* (re.* (re.+ (re.+ (re.union (re.union (re.union (re.* (re.union (re.union (str.to_re "000") (str.to_re "1")) (re.union (str.to_re "2") (str.to_re "3")))) (re.* (re.+ (re.+ (str.to_re "44"))))) (re.union (re.+ (re.* (re.* (str.to_re "55")))) (re.+ (re.union (re.union (str.to_re "6") (str.to_re "77")) (re.union (str.to_re "888") (str.to_re "999")))))) (re.union (re.union (re.* (re.+ (re.+ (str.to_re "aaa")))) (re.* (re.* (re.+ (str.to_re "bbb"))))) (re.union (re.* (re.union (re.+ (str.to_re "ccc")) (re.+ (str.to_re "ddd")))) (re.* (re.+ (re.* (str.to_re "e"))))))))))) (re.* (re.+ (re.union (re.+ (re.+ (re.union (re.+ (re.* (re.+ (re.* (str.to_re "fff"))))) (re.+ (re.+ (re.union (re.union (str.to_re "ggg") (str.to_re "h")) (re.union (str.to_re "ii") (str.to_re "jjj")))))))) (re.+ (re.union (re.union (re.union (re.+ (re.union (re.* (str.to_re "kkk")) (re.* (str.to_re "lll")))) (re.+ (re.union (re.+ (str.to_re "mm")) (re.+ (str.to_re "n"))))) (re.union (re.+ (re.union (re.union (str.to_re "o") (str.to_re "ppp")) (re.union (str.to_re "qqq") (str.to_re "r")))) (re.+ (re.+ (re.+ (str.to_re "s")))))) (re.union (re.union (re.+ (re.* (re.union (str.to_re "tt") (str.to_re "u")))) (re.+ (re.* (re.+ (str.to_re "vv"))))) (re.union (re.* (re.union (re.* (str.to_re "www")) (re.* (str.to_re "xxx")))) (re.* (re.+ (re.union (str.to_re "yyy") (str.to_re "zz")))))))))))) (re.union (re.* (re.+ (re.union (re.+ (re.+ (re.union (re.+ (re.* (re.+ (re.union (str.to_re "AAA") (str.to_re "B"))))) (re.+ (re.* (re.union (re.+ (str.to_re "CCC")) (re.+ (str.to_re "DDD")))))))) (re.+ (re.* (re.union (re.* (re.union (re.+ (re.union (str.to_re "EE") (str.to_re "FFF"))) (re.+ (re.union (str.to_re "G") (str.to_re "HH"))))) (re.* (re.union (re.* (re.+ (str.to_re "III"))) (re.* (re.union (str.to_re "JJJ") (str.to_re "KKK"))))))))))) (re.* (re.union (re.union (re.+ (re.* (re.+ (re.union (re.+ (re.union (re.union (str.to_re "LL") (str.to_re "M")) (re.union (str.to_re "NNN") (str.to_re "O")))) (re.+ (re.* (re.union (str.to_re "PPP") (str.to_re "QQQ")))))))) (re.+ (re.* (re.union (re.+ (re.* (re.union (re.union (str.to_re "RRR") (str.to_re "SSS")) (re.union (str.to_re "TT") (str.to_re "UU"))))) (re.+ (re.+ (re.+ (re.+ (str.to_re "VV"))))))))) (re.union (re.* (re.+ (re.* (re.+ (re.+ (re.+ (re.union (str.to_re "W") (str.to_re "XX")))))))) (re.* (re.+ (re.+ (re.+ (re.union (re.* (re.+ (str.to_re "Y"))) (re.* (re.* (str.to_re "Z"))))))))))))) (re.* (re.union (re.* (re.* (re.union (re.+ (re.* (re.* (re.+ (re.union (re.+ (re.+ (str.to_re "!!"))) (re.+ (re.+ (str.to_re """")))))))) (re.+ (re.* (re.* (re.* (re.+ (re.+ (re.* (str.to_re "###"))))))))))) (re.* (re.* (re.+ (re.union (re.* (re.+ (re.union (re.union (re.union (re.+ (str.to_re "$$$")) (re.+ (str.to_re "%"))) (re.union (re.* (str.to_re "&")) (re.* (str.to_re "'")))) (re.union (re.* (re.union (str.to_re "(((") (str.to_re ")"))) (re.* (re.* (str.to_re "***"))))))) (re.* (re.* (re.union (re.* (re.union (re.* (str.to_re "+")) (re.* (str.to_re ",")))) (re.* (re.+ (re.* (str.to_re "-"))))))))))))))))
(assert (<= 15 (str.len var0)))
(check-sat)